20J7M/DAT/20J7MUNL-6.dat
20 7
0.6062 0.6062
37.018 37.018
18.2805 18.2805
45.6241 45.6241
32.3494 32.3494
27.6297 27.6297
26.4975 26.4975
5.1205 5.1205
23.4015 23.4015
45.6365 45.6365
9.2972 9.2972
22.2159 22.2159
25.5521 25.5521
23.9119 23.9119
11.0328 11.0328
15.7323 15.7323
43.0362 43.0362
27.1218 27.1218
33.3112 33.3112
38.6792 38.6792
512.0545