20J7M/SOL/20J7MUNL-6.sol
solution status: optimal solution found
objective value:                     73.1506428571428
x#1#1                                               1 	(obj:0)
x#2#3                                               1 	(obj:0)
x#3#3                                               1 	(obj:0)
x#4#2                               0.399280831214832 	(obj:0)
x#4#4                               0.600719168785168 	(obj:0)
x#5#1                                               1 	(obj:0)
x#6#7                                               1 	(obj:0)
x#7#6                                               1 	(obj:0)
x#8#1                                               1 	(obj:0)
x#9#5                                               1 	(obj:0)
x#10#4                              0.154792138498164 	(obj:0)
x#10#5                              0.845207861501836 	(obj:0)
x#11#3                                              1 	(obj:0)
x#12#2                                              1 	(obj:0)
x#13#6                                              1 	(obj:0)
x#14#5                            0.00602270357915062 	(obj:0)
x#14#7                              0.993977296420849 	(obj:0)
x#15#5                                              1 	(obj:0)
x#16#7                                              1 	(obj:0)
x#17#1                             0.0409734794694434 	(obj:0)
x#17#2                              0.760241710135056 	(obj:0)
x#17#3                              0.198784810395501 	(obj:0)
x#18#6                              0.778010414395167 	(obj:0)
x#18#7                              0.221989585604833 	(obj:0)
x#19#1                                              1 	(obj:0)
x#20#4                                              1 	(obj:0)
z                                    73.1506428571428 	(obj:1)
